HUN,8,6,763
2,18,1,30,0,25,5,27,4,28,3,30
1,14,2,1,0,14,4,22,3,8,5,13
1,11,2,24,0,6,5,28,3,6,4,18
0,1,1,27,2,21,3,30,4,20,5,16
2,13,1,5,0,2,4,17,3,27,5,19
2,13,1,27,0,9,4,27,3,17,5,9
0,26,1,17,2,16,4,7,3,25,5,9
2,10,0,4,1,12,5,26,3,19,4,28
